src/in/semantic_loss_constraints/constraints_as_cnf/still_life_edges.cnf
c This file was generated with the constraints_to_cnf module in this project.
c Starting from file 'still_life/still_life_edges.txt'.
c There are 6 variables present in the constraints, and 6 total variables, given by the shape [6].
c
p cnf 6 22
2 3 4 5 6 -1 0
2 3 4 5 -1 -6 0
2 3 4 6 -1 -5 0
2 3 5 6 -1 -4 0
2 4 5 6 -1 -3 0
3 4 5 6 -1 -2 0
1 2 3 -4 -5 -6 0
1 2 4 -3 -5 -6 0
1 2 5 -3 -4 -6 0
1 2 6 -3 -4 -5 0
1 3 4 -2 -5 -6 0
1 3 5 -2 -4 -6 0
1 3 6 -2 -4 -5 0
1 4 5 -2 -3 -6 0
1 4 6 -2 -3 -5 0
1 5 6 -2 -3 -4 0
2 -1 -3 -4 -5 -6 0
3 -1 -2 -4 -5 -6 0
4 -1 -2 -3 -5 -6 0
5 -1 -2 -3 -4 -6 0
6 -1 -2 -3 -4 -5 0
-1 -2 -3 -4 -5 -6 0

