src/in/semantic_loss_constraints/constraints_as_propositional_logic/still_life_edges.txt
shape [6]
Implies(~X0, Nor(And(X1,X2,X3,~X4,~X5),And(X1,X2,~X3,X4,~X5),And(X1,X2,~X3,~X4,X5),And(X1,~X2,X3,X4,~X5),And(X1,~X2,X3,~X4,X5),And(X1,~X2,~X3,X4,X5),And(~X1,X2,X3,X4,~X5),And(~X1,X2,X3,~X4,X5),And(~X1,X2,~X3,X4,X5),And(~X1,~X2,X3,X4,X5)))
Implies(X0, Nor(And(X1,~X2,~X3,~X4,~X5),And(~X1,X2,~X3,~X4,~X5),And(~X1,~X2,X3,~X4,~X5),And(~X1,~X2,~X3,X4,~X5),And(~X1,~X2,~X3,~X4,X5),And(X1,X2,X3,X4,~X5),And(X1,X2,X3,~X4,X5),And(X1,X2,~X3,X4,X5),And(X1,~X2,X3,X4,X5),And(~X1,X2,X3,X4,X5),And(X1,X2,X3,X4,X5)))